p edge 380 1900
e 1 31
e 1 42
e 1 83
e 1 91
e 1 238
e 2 30
e 2 206
e 2 219
e 2 264
e 2 313
e 3 49
e 3 64
e 3 69
e 3 115
e 3 155
e 4 93
e 4 106
e 4 112
e 4 130
e 4 252
e 5 140
e 5 142
e 5 145
e 5 216
e 5 375
e 6 31
e 6 157
e 6 232
e 6 236
e 6 326
e 7 12
e 7 22
e 7 126
e 7 138
e 7 224
e 8 214
e 8 222
e 8 245
e 8 282
e 8 348
e 9 148
e 9 153
e 9 205
e 9 312
e 9 327
e 10 83
e 10 229
e 10 250
e 10 287
e 10 335
e 11 55
e 11 152
e 11 193
e 11 201
e 11 277
e 12 8
e 12 19
e 12 115
e 12 330
e 12 359
e 13 53
e 13 105
e 13 135
e 13 184
e 13 239
e 14 23
e 14 52
e 14 78
e 14 186
e 14 284
e 15 13
e 15 63
e 15 107
e 15 136
e 15 368
e 16 37
e 16 47
e 16 119
e 16 204
e 16 257
e 17 68
e 17 159
e 17 254
e 17 343
e 17 348
e 18 242
e 18 284
e 18 300
e 18 338
e 18 370
e 19 77
e 19 105
e 19 213
e 19 219
e 19 326
e 20 169
e 20 231
e 20 239
e 20 333
e 20 335
e 21 56
e 21 88
e 21 182
e 21 283
e 21 352
e 22 111
e 22 115
e 22 269
e 22 351
e 22 368
e 23 195
e 23 240
e 23 246
e 23 256
e 23 364
e 24 15
e 24 155
e 24 203
e 24 283
e 24 342
e 25 20
e 25 222
e 25 260
e 25 308
e 25 357
e 26 112
e 26 176
e 26 227
e 26 280
e 26 310
e 27 59
e 27 119
e 27 142
e 27 255
e 27 289
e 28 202
e 28 211
e 28 287
e 28 300
e 28 336
e 29 2
e 29 84
e 29 137
e 29 350
e 29 364
e 30 178
e 30 182
e 30 199
e 30 204
e 30 352
e 31 63
e 31 134
e 31 161
e 31 212
e 31 319
e 32 22
e 32 117
e 32 288
e 32 308
e 32 333
e 33 17
e 33 44
e 33 156
e 33 222
e 33 281
e 34 41
e 34 68
e 34 296
e 34 302
e 34 362
e 35 41
e 35 126
e 35 177
e 35 188
e 35 309
e 36 9
e 36 88
e 36 93
e 36 124
e 36 256
e 37 102
e 37 135
e 37 240
e 37 268
e 37 316
e 38 28
e 38 86
e 38 298
e 38 305
e 38 331
e 39 154
e 39 161
e 39 240
e 39 314
e 39 362
e 40 47
e 40 68
e 40 78
e 40 94
e 40 161
e 41 40
e 41 110
e 41 111
e 41 185
e 41 264
e 42 117
e 42 137
e 42 225
e 42 237
e 42 341
e 43 78
e 43 144
e 43 324
e 43 335
e 43 357
e 44 45
e 44 92
e 44 127
e 44 157
e 44 171
e 45 49
e 45 146
e 45 150
e 45 163
e 45 318
e 46 82
e 46 101
e 46 147
e 46 248
e 46 346
e 47 90
e 47 107
e 47 199
e 47 218
e 47 339
e 48 89
e 48 154
e 48 183
e 48 200
e 48 267
e 49 153
e 49 193
e 49 273
e 49 292
e 49 349
e 50 2
e 50 9
e 50 75
e 50 121
e 50 209
e 51 37
e 51 54
e 51 152
e 51 261
e 51 278
e 52 31
e 52 34
e 52 173
e 52 237
e 52 254
e 53 175
e 53 184
e 53 193
e 53 198
e 53 376
e 54 69
e 54 77
e 54 149
e 54 152
e 54 232
e 55 62
e 55 251
e 55 255
e 55 275
e 55 328
e 56 53
e 56 72
e 56 129
e 56 140
e 56 332
e 57 21
e 57 176
e 57 177
e 57 197
e 57 230
e 58 38
e 58 127
e 58 290
e 58 318
e 58 343
e 59 73
e 59 206
e 59 211
e 59 272
e 59 332
e 60 128
e 60 135
e 60 194
e 60 302
e 60 333
e 61 8
e 61 67
e 61 153
e 61 222
e 61 237
e 62 10
e 62 161
e 62 233
e 62 284
e 62 314
e 63 44
e 63 66
e 63 184
e 63 201
e 63 236
e 64 4
e 64 87
e 64 265
e 64 329
e 64 349
e 65 180
e 65 284
e 65 290
e 65 345
e 65 375
e 66 34
e 66 36
e 66 60
e 66 109
e 66 234
e 67 11
e 67 81
e 67 147
e 67 307
e 67 336
e 68 32
e 68 144
e 68 170
e 68 237
e 68 288
e 69 43
e 69 179
e 69 243
e 69 313
e 69 338
e 70 82
e 70 115
e 70 161
e 70 233
e 70 315
e 71 125
e 71 180
e 71 216
e 71 263
e 71 304
e 72 184
e 72 201
e 72 232
e 72 298
e 72 363
e 73 233
e 73 269
e 73 294
e 73 309
e 73 356
e 74 80
e 74 282
e 74 287
e 74 327
e 74 352
e 75 38
e 75 53
e 75 182
e 75 223
e 75 281
e 76 136
e 76 145
e 76 207
e 76 213
e 76 336
e 77 23
e 77 97
e 77 112
e 77 194
e 77 378
e 78 15
e 78 17
e 78 46
e 78 139
e 78 178
e 79 21
e 79 28
e 79 70
e 79 225
e 79 318
e 80 103
e 80 197
e 80 226
e 80 327
e 80 344
e 81 31
e 81 95
e 81 177
e 81 240
e 81 278
e 82 3
e 82 175
e 82 202
e 82 271
e 82 360
e 83 132
e 83 152
e 83 189
e 83 228
e 83 263
e 84 8
e 84 18
e 84 50
e 84 74
e 84 107
e 85 76
e 85 146
e 85 201
e 85 219
e 85 323
e 86 49
e 86 182
e 86 204
e 86 246
e 86 357
e 87 53
e 87 78
e 87 89
e 87 179
e 87 210
e 88 24
e 88 25
e 88 79
e 88 249
e 88 356
e 89 137
e 89 146
e 89 292
e 89 346
e 89 347
e 90 10
e 90 250
e 90 311
e 90 328
e 90 349
e 91 21
e 91 100
e 91 105
e 91 211
e 91 228
e 92 6
e 92 28
e 92 241
e 92 335
e 92 374
e 93 40
e 93 185
e 93 228
e 93 265
e 93 375
e 94 41
e 94 79
e 94 160
e 94 181
e 94 333
e 95 60
e 95 93
e 95 258
e 95 288
e 95 374
e 96 23
e 96 53
e 96 62
e 96 71
e 96 168
e 97 27
e 97 212
e 97 226
e 97 281
e 97 363
e 98 81
e 98 85
e 98 194
e 98 276
e 98 354
e 99 5
e 99 102
e 99 124
e 99 182
e 99 337
e 100 45
e 100 78
e 100 161
e 100 221
e 100 342
e 101 57
e 101 93
e 101 135
e 101 294
e 101 342
e 102 46
e 102 65
e 102 135
e 102 151
e 102 273
e 103 134
e 103 156
e 103 231
e 103 236
e 103 373
e 104 35
e 104 248
e 104 276
e 104 297
e 104 375
e 105 35
e 105 101
e 105 107
e 105 128
e 105 260
e 106 4
e 106 165
e 106 261
e 106 279
e 106 376
e 107 119
e 107 217
e 107 313
e 107 316
e 107 380
e 108 93
e 108 123
e 108 178
e 108 288
e 108 341
e 109 104
e 109 149
e 109 255
e 109 271
e 109 346
e 110 12
e 110 25
e 110 37
e 110 130
e 110 284
e 111 106
e 111 285
e 111 328
e 111 334
e 111 353
e 112 16
e 112 122
e 112 223
e 112 269
e 112 319
e 113 41
e 113 116
e 113 199
e 113 199
e 113 363
e 114 31
e 114 203
e 114 235
e 114 244
e 114 320
e 115 33
e 115 34
e 115 42
e 115 80
e 115 343
e 116 55
e 116 110
e 116 332
e 116 350
e 116 374
e 117 51
e 117 206
e 117 291
e 117 296
e 117 306
e 118 15
e 118 39
e 118 62
e 118 291
e 118 323
e 119 55
e 119 183
e 119 295
e 119 323
e 119 357
e 120 47
e 120 172
e 120 262
e 120 277
e 120 290
e 121 117
e 121 125
e 121 154
e 121 257
e 121 318
e 122 63
e 122 65
e 122 109
e 122 287
e 122 320
e 123 97
e 123 228
e 123 250
e 123 250
e 123 281
e 124 16
e 124 23
e 124 90
e 124 157
e 124 201
e 125 25
e 125 118
e 125 141
e 125 294
e 125 344
e 126 21
e 126 60
e 126 64
e 126 288
e 126 354
e 127 71
e 127 75
e 127 98
e 127 153
e 127 249
e 128 158
e 128 186
e 128 242
e 128 351
e 128 380
e 129 108
e 129 256
e 129 275
e 129 305
e 129 306
e 130 208
e 130 255
e 130 276
e 130 308
e 130 370
e 131 77
e 131 86
e 131 216
e 131 323
e 131 335
e 132 28
e 132 176
e 132 346
e 132 362
e 132 369
e 133 54
e 133 82
e 133 107
e 133 166
e 133 321
e 134 145
e 134 232
e 134 246
e 134 335
e 134 341
e 135 25
e 135 98
e 135 100
e 135 127
e 135 324
e 136 97
e 136 243
e 136 257
e 136 330
e 136 359
e 137 65
e 137 105
e 137 168
e 137 178
e 137 241
e 138 31
e 138 111
e 138 157
e 138 246
e 138 313
e 139 9
e 139 51
e 139 130
e 139 243
e 139 280
e 140 90
e 140 157
e 140 196
e 140 210
e 140 337
e 141 39
e 141 73
e 141 129
e 141 189
e 141 275
e 142 229
e 142 242
e 142 260
e 142 304
e 142 368
e 143 8
e 143 23
e 143 177
e 143 346
e 143 372
e 144 121
e 144 221
e 144 234
e 144 324
e 144 366
e 145 114
e 145 142
e 145 172
e 145 317
e 145 348
e 146 129
e 146 169
e 146 224
e 146 249
e 146 270
e 147 28
e 147 59
e 147 65
e 147 86
e 147 350
e 148 115
e 148 253
e 148 313
e 148 346
e 148 365
e 149 9
e 149 75
e 149 122
e 149 130
e 149 164
e 150 54
e 150 87
e 150 154
e 150 168
e 150 238
e 151 203
e 151 213
e 151 238
e 151 251
e 151 331
e 152 28
e 152 36
e 152 70
e 152 169
e 152 197
e 153 6
e 153 26
e 153 52
e 153 291
e 153 310
e 154 135
e 154 255
e 154 272
e 154 316
e 154 338
e 155 14
e 155 86
e 155 199
e 155 299
e 155 375
e 156 51
e 156 109
e 156 132
e 156 132
e 156 345
e 157 39
e 157 118
e 157 272
e 157 325
e 157 341
e 158 67
e 158 205
e 158 205
e 158 284
e 158 361
e 159 75
e 159 234
e 159 242
e 159 310
e 159 353
e 160 141
e 160 268
e 160 271
e 160 292
e 160 379
e 161 62
e 161 96
e 161 203
e 161 284
e 161 378
e 162 49
e 162 94
e 162 175
e 162 365
e 162 377
e 163 82
e 163 180
e 163 182
e 163 320
e 163 339
e 164 116
e 164 120
e 164 224
e 164 238
e 164 289
e 165 118
e 165 152
e 165 184
e 165 337
e 165 368
e 166 125
e 166 139
e 166 256
e 166 272
e 166 356
e 167 98
e 167 118
e 167 125
e 167 143
e 167 185
e 168 37
e 168 99
e 168 183
e 168 330
e 168 370
e 169 39
e 169 52
e 169 120
e 169 326
e 169 331
e 170 22
e 170 48
e 170 49
e 170 305
e 170 379
e 171 105
e 171 157
e 171 222
e 171 231
e 171 259
e 172 88
e 172 98
e 172 105
e 172 222
e 172 272
e 173 76
e 173 117
e 173 136
e 173 197
e 173 347
e 174 121
e 174 183
e 174 203
e 174 345
e 174 372
e 175 70
e 175 90
e 175 108
e 175 176
e 175 372
e 176 34
e 176 59
e 176 218
e 176 270
e 176 359
e 177 168
e 177 190
e 177 202
e 177 258
e 177 342
e 178 115
e 178 183
e 178 207
e 178 250
e 178 306
e 179 127
e 179 248
e 179 278
e 179 311
e 179 339
e 180 33
e 180 60
e 180 123
e 180 323
e 180 336
e 181 41
e 181 170
e 181 176
e 181 259
e 181 372
e 182 75
e 182 146
e 182 159
e 182 236
e 182 337
e 183 67
e 183 138
e 183 284
e 183 307
e 183 322
e 184 77
e 184 230
e 184 262
e 184 279
e 184 326
e 185 141
e 185 163
e 185 203
e 185 240
e 185 369
e 186 42
e 186 88
e 186 220
e 186 299
e 186 302
e 187 92
e 187 126
e 187 135
e 187 137
e 187 247
e 188 83
e 188 158
e 188 196
e 188 295
e 188 349
e 189 53
e 189 149
e 189 287
e 189 315
e 189 334
e 190 88
e 190 93
e 190 184
e 190 198
e 190 335
e 191 46
e 191 216
e 191 250
e 191 293
e 191 376
e 192 143
e 192 191
e 192 195
e 192 224
e 192 349
e 193 109
e 193 142
e 193 212
e 193 289
e 193 328
e 194 35
e 194 78
e 194 151
e 194 223
e 194 275
e 195 169
e 195 175
e 195 204
e 195 314
e 195 359
e 196 137
e 196 206
e 196 210
e 196 349
e 196 377
e 197 2
e 197 22
e 197 208
e 197 254
e 197 312
e 198 57
e 198 116
e 198 147
e 198 281
e 198 311
e 199 18
e 199 59
e 199 204
e 199 264
e 199 313
e 200 107
e 200 175
e 200 212
e 200 320
e 200 341
e 201 31
e 201 102
e 201 252
e 201 360
e 201 376
e 202 14
e 202 73
e 202 231
e 202 253
e 202 347
e 203 31
e 203 117
e 203 275
e 203 355
e 203 368
e 204 55
e 204 86
e 204 117
e 204 120
e 204 290
e 205 75
e 205 129
e 205 143
e 205 199
e 205 371
e 206 139
e 206 173
e 206 224
e 206 258
e 206 275
e 207 45
e 207 80
e 207 103
e 207 149
e 207 157
e 208 5
e 208 112
e 208 131
e 208 198
e 208 347
e 209 5
e 209 91
e 209 249
e 209 285
e 209 377
e 210 70
e 210 104
e 210 192
e 210 366
e 210 378
e 211 20
e 211 57
e 211 58
e 211 121
e 211 290
e 212 15
e 212 162
e 212 175
e 212 197
e 212 240
e 213 94
e 213 144
e 213 166
e 213 257
e 213 351
e 214 15
e 214 130
e 214 236
e 214 263
e 214 358
e 215 4
e 215 155
e 215 175
e 215 271
e 215 343
e 216 59
e 216 62
e 216 74
e 216 89
e 216 351
e 217 19
e 217 85
e 217 114
e 217 164
e 217 359
e 218 12
e 218 69
e 218 154
e 218 302
e 218 303
e 219 138
e 219 189
e 219 322
e 219 360
e 219 367
e 220 115
e 220 140
e 220 154
e 220 233
e 220 245
e 221 100
e 221 122
e 221 137
e 221 272
e 221 295
e 222 23
e 222 111
e 222 229
e 222 242
e 222 266
e 223 19
e 223 73
e 223 238
e 223 294
e 223 337
e 224 21
e 224 77
e 224 94
e 224 220
e 224 238
e 225 92
e 225 95
e 225 178
e 225 332
e 225 340
e 226 17
e 226 50
e 226 160
e 226 254
e 226 377
e 227 199
e 227 215
e 227 279
e 227 325
e 227 348
e 228 51
e 228 99
e 228 143
e 228 208
e 228 312
e 229 35
e 229 57
e 229 91
e 229 160
e 229 242
e 230 205
e 230 255
e 230 271
e 230 286
e 230 299
e 231 210
e 231 273
e 231 293
e 231 343
e 231 371
e 232 15
e 232 25
e 232 193
e 232 277
e 232 349
e 233 116
e 233 156
e 233 236
e 233 258
e 233 264
e 234 25
e 234 201
e 234 219
e 234 275
e 234 334
e 235 48
e 235 145
e 235 152
e 235 303
e 235 335
e 236 19
e 236 158
e 236 231
e 236 267
e 236 294
e 237 46
e 237 150
e 237 201
e 237 351
e 237 361
e 238 118
e 238 235
e 238 296
e 238 316
e 238 371
e 239 54
e 239 128
e 239 283
e 239 317
e 239 327
e 240 55
e 240 136
e 240 188
e 240 246
e 240 307
e 241 29
e 241 30
e 241 43
e 241 193
e 241 283
e 242 13
e 242 54
e 242 75
e 242 133
e 242 157
e 243 69
e 243 126
e 243 204
e 243 226
e 243 226
e 244 90
e 244 135
e 244 232
e 244 279
e 244 294
e 245 157
e 245 163
e 245 209
e 245 274
e 245 366
e 246 24
e 246 128
e 246 153
e 246 303
e 246 347
e 247 55
e 247 73
e 247 77
e 247 322
e 247 361
e 248 13
e 248 43
e 248 207
e 248 226
e 248 249
e 249 37
e 249 188
e 249 236
e 249 238
e 249 310
e 250 107
e 250 183
e 250 247
e 250 256
e 250 310
e 251 57
e 251 83
e 251 101
e 251 111
e 251 190
e 252 3
e 252 103
e 252 213
e 252 245
e 252 376
e 253 27
e 253 177
e 253 198
e 253 216
e 253 271
e 254 10
e 254 37
e 254 182
e 254 221
e 254 304
e 255 110
e 255 140
e 255 153
e 255 196
e 255 331
e 256 28
e 256 195
e 256 269
e 256 321
e 256 355
e 257 94
e 257 126
e 257 324
e 257 325
e 257 376
e 258 70
e 258 165
e 258 243
e 258 345
e 258 350
e 259 75
e 259 126
e 259 144
e 259 247
e 259 312
e 260 32
e 260 50
e 260 90
e 260 150
e 260 334
e 261 41
e 261 92
e 261 169
e 261 272
e 261 339
e 262 63
e 262 77
e 262 202
e 262 281
e 262 295
e 263 278
e 263 306
e 263 323
e 263 353
e 263 354
e 264 49
e 264 211
e 264 260
e 264 280
e 264 346
e 265 25
e 265 35
e 265 354
e 265 368
e 265 372
e 266 49
e 266 84
e 266 85
e 266 196
e 266 322
e 267 61
e 267 123
e 267 154
e 267 322
e 267 331
e 268 83
e 268 134
e 268 181
e 268 285
e 268 304
e 269 25
e 269 165
e 269 227
e 269 251
e 269 344
e 270 17
e 270 49
e 270 122
e 270 132
e 270 217
e 271 47
e 271 114
e 271 152
e 271 262
e 271 339
e 272 38
e 272 86
e 272 151
e 272 171
e 272 310
e 273 13
e 273 25
e 273 167
e 273 185
e 273 346
e 274 51
e 274 61
e 274 92
e 274 276
e 274 372
e 275 49
e 275 93
e 275 102
e 275 125
e 275 208
e 276 40
e 276 53
e 276 64
e 276 89
e 276 254
e 277 77
e 277 100
e 277 119
e 277 251
e 277 273
e 278 28
e 278 143
e 278 185
e 278 240
e 278 372
e 279 66
e 279 116
e 279 130
e 279 243
e 279 267
e 280 13
e 280 15
e 280 137
e 280 167
e 280 284
e 281 150
e 281 249
e 281 289
e 281 293
e 281 302
e 282 11
e 282 125
e 282 197
e 282 299
e 282 380
e 283 44
e 283 196
e 283 218
e 283 284
e 283 338
e 284 21
e 284 27
e 284 96
e 284 140
e 284 157
e 285 68
e 285 102
e 285 264
e 285 323
e 285 349
e 286 185
e 286 208
e 286 245
e 286 302
e 286 365
e 287 26
e 287 38
e 287 174
e 287 227
e 287 284
e 288 35
e 288 163
e 288 174
e 288 187
e 288 331
e 289 16
e 289 49
e 289 148
e 289 239
e 289 331
e 290 65
e 290 167
e 290 202
e 290 245
e 290 250
e 291 210
e 291 275
e 291 294
e 291 315
e 291 349
e 292 17
e 292 166
e 292 217
e 292 280
e 292 300
e 293 29
e 293 105
e 293 185
e 293 347
e 293 359
e 294 89
e 294 255
e 294 280
e 294 307
e 294 360
e 295 17
e 295 28
e 295 183
e 295 191
e 295 283
e 296 69
e 296 82
e 296 309
e 296 317
e 296 358
e 297 19
e 297 77
e 297 98
e 297 229
e 297 259
e 298 45
e 298 185
e 298 255
e 298 322
e 298 327
e 299 74
e 299 223
e 299 261
e 299 311
e 299 346
e 300 59
e 300 138
e 300 244
e 300 244
e 300 353
e 301 31
e 301 60
e 301 82
e 301 208
e 301 297
e 302 10
e 302 119
e 302 140
e 302 240
e 302 361
e 303 21
e 303 245
e 303 256
e 303 267
e 303 269
e 304 49
e 304 173
e 304 185
e 304 285
e 304 337
e 305 126
e 305 143
e 305 159
e 305 329
e 305 374
e 306 105
e 306 137
e 306 248
e 306 279
e 306 336
e 307 29
e 307 78
e 307 182
e 307 241
e 307 319
e 308 1
e 308 101
e 308 135
e 308 196
e 308 215
e 309 59
e 309 123
e 309 132
e 309 216
e 309 255
e 310 24
e 310 93
e 310 114
e 310 289
e 310 342
e 311 120
e 311 164
e 311 337
e 311 362
e 311 376
e 312 16
e 312 123
e 312 221
e 312 227
e 312 248
e 313 9
e 313 65
e 313 75
e 313 118
e 313 146
e 314 11
e 314 20
e 314 96
e 314 150
e 314 349
e 315 7
e 315 102
e 315 140
e 315 140
e 315 318
e 316 34
e 316 72
e 316 263
e 316 297
e 316 354
e 317 89
e 317 173
e 317 197
e 317 287
e 317 379
e 318 70
e 318 140
e 318 159
e 318 181
e 318 232
e 319 161
e 319 172
e 319 229
e 319 281
e 319 354
e 320 17
e 320 221
e 320 235
e 320 296
e 320 310
e 321 11
e 321 50
e 321 225
e 321 364
e 321 365
e 322 30
e 322 169
e 322 226
e 322 243
e 322 374
e 323 20
e 323 23
e 323 44
e 323 244
e 323 328
e 324 85
e 324 89
e 324 93
e 324 94
e 324 219
e 325 59
e 325 91
e 325 281
e 325 307
e 325 369
e 326 47
e 326 161
e 326 199
e 326 280
e 326 291
e 327 61
e 327 69
e 327 94
e 327 264
e 327 299
e 328 85
e 328 192
e 328 197
e 328 245
e 328 246
e 329 69
e 329 255
e 329 321
e 329 327
e 329 376
e 330 27
e 330 180
e 330 241
e 330 256
e 330 294
e 331 49
e 331 62
e 331 197
e 331 235
e 331 275
e 332 35
e 332 39
e 332 71
e 332 287
e 332 351
e 333 53
e 333 122
e 333 129
e 333 188
e 333 251
e 334 1
e 334 9
e 334 32
e 334 154
e 334 257
e 335 7
e 335 203
e 335 222
e 335 274
e 335 307
e 336 137
e 336 161
e 336 171
e 336 263
e 336 306
e 337 86
e 337 132
e 337 193
e 337 229
e 337 379
e 338 7
e 338 219
e 338 294
e 338 332
e 338 360
e 339 63
e 339 214
e 339 240
e 339 373
e 339 380
e 340 38
e 340 52
e 340 125
e 340 344
e 340 366
e 341 92
e 341 93
e 341 170
e 341 246
e 341 380
e 342 31
e 342 100
e 342 246
e 342 369
e 342 376
e 343 26
e 343 87
e 343 288
e 343 290
e 343 301
e 344 70
e 344 104
e 344 113
e 344 136
e 344 189
e 345 13
e 345 193
e 345 267
e 345 279
e 345 355
e 346 172
e 346 230
e 346 282
e 346 357
e 346 365
e 347 21
e 347 97
e 347 131
e 347 166
e 347 181
e 348 60
e 348 187
e 348 244
e 348 295
e 348 347
e 349 6
e 349 48
e 349 97
e 349 213
e 349 293
e 350 105
e 350 222
e 350 288
e 350 293
e 350 315
e 351 91
e 351 184
e 351 198
e 351 221
e 351 286
e 352 94
e 352 168
e 352 333
e 352 356
e 352 359
e 353 117
e 353 238
e 353 242
e 353 318
e 353 372
e 354 6
e 354 121
e 354 206
e 354 314
e 354 332
e 355 136
e 355 310
e 355 350
e 355 369
e 355 372
e 356 18
e 356 119
e 356 195
e 356 232
e 356 378
e 357 4
e 357 31
e 357 200
e 357 234
e 357 279
e 358 1
e 358 42
e 358 85
e 358 283
e 358 319
e 359 228
e 359 262
e 359 262
e 359 298
e 359 370
e 360 38
e 360 83
e 360 191
e 360 238
e 360 251
e 361 129
e 361 167
e 361 192
e 361 200
e 361 333
e 362 17
e 362 124
e 362 134
e 362 320
e 362 341
e 363 100
e 363 176
e 363 270
e 363 330
e 363 379
e 364 82
e 364 98
e 364 193
e 364 273
e 364 294
e 365 12
e 365 258
e 365 264
e 365 324
e 365 354
e 366 53
e 366 80
e 366 201
e 366 343
e 366 354
e 367 44
e 367 119
e 367 264
e 367 315
e 367 328
e 368 5
e 368 74
e 368 81
e 368 219
e 368 331
e 369 23
e 369 57
e 369 202
e 369 288
e 369 372
e 370 6
e 370 304
e 370 317
e 370 336
e 370 364
e 371 24
e 371 58
e 371 112
e 371 213
e 371 313
e 372 25
e 372 25
e 372 50
e 372 180
e 372 297
e 373 128
e 373 150
e 373 271
e 373 322
e 373 348
e 374 11
e 374 112
e 374 181
e 374 207
e 374 234
e 375 85
e 375 90
e 375 100
e 375 155
e 375 352
e 376 89
e 376 135
e 376 144
e 376 190
e 376 255
e 377 32
e 377 77
e 377 88
e 377 134
e 377 158
e 378 12
e 378 60
e 378 116
e 378 127
e 378 141
e 379 51
e 379 81
e 379 165
e 379 171
e 379 214
e 380 167
e 380 287
e 380 343
e 380 346
e 380 353
